(declare-fun Constructed_Argument_t () String)
(declare-fun Constructed_Argument_2_t () String)
(declare-fun Constructed_Argument_3_t () String)
(assert (= Constructed_Argument_t "number"))
(assert (= Constructed_Argument_2_t "null"))
(assert (= Constructed_Argument_3_t "string"))
(check-sat)
